1
563 713 432  115
15
447 210 251  120 98
416 124 737  198 3
468 348 309  188 236
793 240 376  83 278
777 354 658  63 225
578 576 121  36 184
592 603 67  273 10
718 642 546  127 203
333 751 567  164 276
635 738 746  16 210
339 762 571  204 139
545 762 209  15 255
203 189 786  265 36
749 4 121  172 241
674 73 337  96 275
